c This file describes a weighted CNF in MC 2020 format with 6 variables and 4 clauses 
p wcnf 6 4
w 1 0.4 0
w -1 0.6 0
w 4 0.5 0
w -4 0.5 0
w 5 1.0 0
w -5 1.0 0
-1 -2 0
2 3 -2 0
c this is a comment and will be ignored
4 5 0
4 6 0
